# 
#          Minimise using the ReaxFF potential
#
#                Kenny Jolley  April 2019

# Just reads in a lattice data file and minimises using the chosen method.

# Requires:
#  ffield
#  lattice file with the mass defined

# -----------------------------------
#  Configurable variables
# -----------------------------------

variable input_file   string  'lammps.lattice.dat'    #  Input filename of the lattice

variable min_method   string  'cg'         #  The minimisation method, chose from: cg, htfn, sd, quickmin, fire
variable relax_box    equal    true        #  Allow box dimensions to change during relaxation?  (True/False)
variable force_tol    equal    1.0e-10     #  Minimiser stopping tolerance for force (force units)
variable max_iters    equal    9999999     #  Maximum no. steps of the minimiser before quitting

variable output_freq  equal    0.05        #  Output period of data in log files [ps]
variable dump_freq    equal    0.05        #  Output frequency of dump files containing atom coordinates [ps]

variable atomjiggle   equal    0.01        # Define the amount of random jiggle for atoms [Ang] # This prevents atoms from staying on saddle points

# Should NOT need to change these variables
variable sim_timestep equal     0.0005  #  Timestep to use in the MD simulations [ps]
variable random_seed  equal      33466  #  Seed of the random number generator

# -----------------------------------
#  Simulation commands
# -----------------------------------

#
# ReaxFF potential settings
#

dimension       3
boundary        p p p 
units           real

atom_style  charge
read_data       ${input_file}

# pair_style  reax/c NULL
# pair_coeff  * * ffield C

pair_style hybrid/overlay reax/c NULL  zbl 0.25 0.95
pair_coeff * * reax/c ffield C
pair_coeff * * zbl 6.0 6.0

neighbor       2. bin
neigh_modify   every 10 delay 0 check no
fix            99 all qeq/reax 1 0.0 10.0 1e-6 reax/c


#
# Set the default NVE integrator 
#

fix		1 all nve

# Set timestep
variable reaxff_sim_timestep equal (${sim_timestep}*1000.0)
timestep ${reaxff_sim_timestep}



# Relax box?
if "${relax_box}" then &
 "fix 2 all box/relax aniso 0.0 vmax 0.001"


# Apply the amount of random jiggle for atoms
displace_atoms all random ${atomjiggle} ${atomjiggle} ${atomjiggle} ${random_seed} units box


# Output data format of the log file
thermo_style    custom time step ke pe etotal temp press lx ly lz vol density fmax fnorm
# Output frequency of the log file
variable thermo_freq equal ${output_freq}/${sim_timestep}
thermo ${thermo_freq}
thermo_modify lost ignore flush yes



# Define a variable v_simtime, and set equal to simulation time for each atom
variable simtime atom time
# Define computes for the ke and pe of each atom
compute ke all ke/atom
compute pe all pe/atom


# Write lattice to output file, custom column format.
variable dump_freqsteps equal (v_dump_freq/${sim_timestep})
dump            6 all custom ${dump_freqsteps} dump*.dat.gz id element x y z v_simtime c_ke c_pe
# use LBOMD convention for atom names
dump_modify     6 element C_


min_style ${min_method}

##  Minimize
#minimize etol ftol maxiter maxeval
#
#    etol = stopping tolerance for energy (unitless)
#    ftol = stopping tolerance for force (force units)
#    maxiter = max iterations of minimizer
#    maxeval = max number of force/energy evaluations

minimize 0.0 ${force_tol} ${max_iters} 10000000000




